
List of user-set options:

                                    Name   Value                used
                           compl_inf_tol = 1                     yes
                         constr_viol_tol = 1                     yes
                            dual_inf_tol = 1000                  yes
                           linear_solver = ma97                  yes
                              ma86_small = 1e-30                  no
                                  ma86_u = 0.0001                 no
                              ma97_order = best                  yes
                              ma97_small = 1e-30                 yes
                            ma97_switch1 = at_start              yes
                            ma97_switch2 = od_hd_reuse           yes
                                  ma97_u = 1e-06                 yes
                               ma97_umax = 0.5                   yes
                                max_iter = 1000                  yes
                    max_refinement_steps = 20                    yes
                    min_refinement_steps = 5                     yes
                                 mu_init = 1e-06                 yes
           mu_superlinear_decrease_power = 1.25                  yes
                   nlp_scaling_min_value = 1e-08                 yes
                        option_file_name = Preset_Case:_642_NCP.opt  yes
                             output_file = ./tmp/Preset_Case:_642_NCP.output  yes
                      print_user_options = yes                   yes
        required_infeasibility_reduction = 1                      no
                                     tol = 1e-08                 yes
                   warm_start_bound_frac = 1e-20                 yes
                   warm_start_bound_push = 1e-20                 yes
                   warm_start_init_point = yes                   yes
              warm_start_mult_bound_push = 1e-20                 yes
                warm_start_mult_init_max = 1e+40                 yes
             warm_start_slack_bound_frac = 1e-20                 yes
             warm_start_slack_bound_push = 1e-20                 yes

******************************************************************************
This program contains Ipopt, a library for large-scale nonlinear optimization.
 Ipopt is released as open source code under the Eclipse Public License (EPL).
         For more information visit http://projects.coin-or.org/Ipopt
******************************************************************************

This is Ipopt version 3.12.10, running with linear solver ma97.

Number of nonzeros in equality constraint Jacobian...:   117167
Number of nonzeros in inequality constraint Jacobian.:      213
Number of nonzeros in Lagrangian Hessian.............:    47513

Total number of variables............................:    29977
                     variables with only lower bounds:    11312
                variables with lower and upper bounds:    15135
                     variables with only upper bounds:        0
Total number of equality constraints.................:    29864
Total number of inequality constraints...............:       25
        inequality constraints with only lower bounds:        4
   inequality constraints with lower and upper bounds:        0
        inequality constraints with only upper bounds:       21

iter    objective    inf_pr   inf_du lg(mu)  ||d||  lg(rg) alpha_du alpha_pr  ls
   0 -1.5638726e-01 1.17e-01 2.00e+00  -6.0 0.00e+00    -  0.00e+00 0.00e+00   0
In iteration 0, 8 Slacks too small, adjusting variable bounds
   1 -1.5638726e-01 1.17e-01 6.32e+02  -6.0 1.25e+10    -  6.32e-14 9.32e-19h  1
   2 -1.5613596e-01 1.12e-01 2.25e+03  -6.0 6.72e+01    -  1.00e-02 3.51e-02h  3
   3 -1.5613258e-01 1.12e-01 2.50e+03  -6.0 3.74e+01    -  2.28e-01 9.30e-04h  1
   4 -1.5588267e-01 1.07e-01 2.37e+03  -6.0 5.06e+01    -  5.12e-02 4.93e-02h  3
   5 -1.5503993e-01 9.80e-02 2.05e+03  -6.0 2.84e+01    -  2.49e-01 8.43e-02h  2
   6 -1.5466256e-01 9.10e-02 1.90e+03  -6.0 3.15e+01    -  1.66e-01 7.16e-02h  1
   7 -1.5464974e-01 8.98e-02 1.90e+03  -6.0 5.52e+01    -  5.33e-02 1.24e-02h  1
   8 -1.5459665e-01 8.85e-02 1.98e+03  -6.0 5.03e+01    -  2.49e-01 1.51e-02h  3
   9 -1.5448163e-01 8.64e-02 2.03e+03  -6.0 4.40e+01    -  3.33e-01 2.32e-02h  5
iter    objective    inf_pr   inf_du lg(mu)  ||d||  lg(rg) alpha_du alpha_pr  ls
  10 -1.5441218e-01 8.49e-02 2.06e+03  -6.0 3.96e+01    -  3.58e-01 1.79e-02h  6
  11 -1.5438431e-01 8.40e-02 2.04e+03  -6.0 3.43e+01    -  1.33e-01 1.02e-02h  7
  12 -1.5435975e-01 8.31e-02 2.03e+03  -6.0 3.23e+01    -  3.07e-01 1.06e-02h  7
  13 -1.5434820e-01 8.23e-02 2.00e+03  -6.0 3.02e+01    -  2.38e-01 1.02e-02h  7
  14 -1.5434723e-01 8.15e-02 1.95e+03  -6.0 3.35e+01    -  3.49e-01 1.02e-02h  7
  15 -1.5436596e-01 8.32e-02 1.90e+03  -6.0 3.79e+01    -  4.00e-01 1.03e-02h  7
  16 -1.5440209e-01 8.52e-02 1.85e+03  -6.0 4.14e+01    -  4.17e-01 7.74e-03h  6
  17 -1.5446699e-01 8.76e-02 1.79e+03  -6.0 6.74e+01    -  4.87e-01 7.60e-03h  6
  18 -1.6942103e-01 5.94e+01 1.25e+03  -6.0 1.25e+02    -  4.41e-01 1.00e+00h  1
  19 -1.7002831e-01 5.30e+01 1.12e+03  -6.0 6.43e+00  -4.0 9.14e-02 1.07e-01h  1
iter    objective    inf_pr   inf_du lg(mu)  ||d||  lg(rg) alpha_du alpha_pr  ls
  20 -1.6521412e-01 2.46e+00 9.90e+02  -6.0 1.33e+01  -4.5 4.96e-01 9.99e-01h  1
  21 -1.6934373e-01 3.97e-02 5.26e+01  -6.0 6.54e+00  -5.0 3.88e-01 1.00e+00h  1
  22 -1.7844041e-01 3.44e-01 4.16e+01  -6.0 1.55e+02    -  1.55e-01 3.24e-01h  1
  23 -1.8255143e-01 3.59e-01 3.38e+01  -6.0 1.37e+02    -  1.85e-01 2.53e-01h  1
  24 -1.8917676e-01 1.02e+00 3.53e+01  -6.0 4.14e+01    -  5.57e-03 5.53e-01h  1
  25 -1.8923591e-01 9.45e-01 2.25e+01  -6.0 2.32e+02    -  4.66e-01 8.26e-02f  1
  26 -1.9419918e-01 1.27e+00 6.15e+01  -6.0 6.36e+01    -  6.15e-01 4.44e-01h  1
  27 -1.9783540e-01 8.11e-01 4.44e+01  -6.0 1.43e+02    -  5.41e-01 3.20e-01h  1
  28 -2.0388279e-01 4.84e+00 7.26e+01  -6.0 2.76e+02    -  4.73e-01 4.43e-01h  1
Error in an AMPL evaluation. Run with "halt_on_ampl_error yes" to see details.
Warning: Cutting back alpha due to evaluation error
  29 -2.0407691e-01 4.79e+00 7.45e+01  -6.0 8.41e+03    -  1.97e-02 4.11e-03h  2
Error in an AMPL evaluation. Run with "halt_on_ampl_error yes" to see details.
Warning: Cutting back alpha due to evaluation error
iter    objective    inf_pr   inf_du lg(mu)  ||d||  lg(rg) alpha_du alpha_pr  ls
  30 -2.0434594e-01 4.70e+00 1.06e+02  -6.0 1.48e+03    -  1.54e-01 1.45e-02h  2
  31 -2.0749947e-01 3.24e+00 1.26e+02  -6.0 5.40e+02    -  6.18e-01 2.48e-01h  1
  32 -2.0742286e-01 4.87e-01 9.60e+01  -6.0 8.26e+00  -5.4 9.07e-02 8.44e-01h  1
  33 -2.0840897e-01 1.64e-01 2.10e+01  -6.0 9.73e+00  -5.9 9.74e-01 9.84e-01f  1
  34 -2.0907900e-01 3.37e-01 4.79e+00  -6.0 2.78e+01  -6.4 9.99e-01 8.63e-01h  1
  35 -2.1089234e-01 1.08e+00 3.87e+01  -6.0 8.59e+01  -6.9 7.94e-01 1.00e+00h  1
  36 -2.1219563e-01 8.32e-01 3.86e+01  -6.0 2.91e+02  -7.3 3.62e-01 2.44e-01h  1
  37 -2.1277506e-01 5.21e-01 5.20e+00  -6.0 2.93e+01  -6.9 8.64e-01 1.00e+00h  1
  38 -2.1459326e-01 4.28e+00 6.62e+01  -6.0 8.11e+01  -7.4 1.00e+00 1.00e+00h  1
  39 -2.1514961e-01 2.39e+00 3.76e+01  -6.0 3.53e+01  -7.0 4.81e-01 7.27e-01h  1
iter    objective    inf_pr   inf_du lg(mu)  ||d||  lg(rg) alpha_du alpha_pr  ls
  40 -2.1671639e-01 7.71e-01 3.05e+01  -6.0 9.44e+01  -7.4 1.00e+00 7.58e-01h  1
  41 -2.1744314e-01 1.84e+00 1.05e+02  -6.0 1.49e+03  -7.9 1.98e-01 4.85e-02h  1
  42 -2.1786924e-01 1.73e+00 4.07e+02  -6.0 2.19e+02  -7.5 1.00e+00 1.14e-01h  1
  43 -2.2264124e-01 1.46e+01 2.41e+02  -6.0 7.89e+02  -8.0 3.45e-01 4.97e-01h  1
  44 -2.2479110e-01 1.31e+01 1.64e+02  -6.0 1.12e+03  -8.4 3.38e-01 1.82e-01h  1
  45 -2.2489419e-01 1.29e+01 1.46e+02  -6.0 3.64e+02  -8.0 1.10e-01 1.76e-02h  1
  46 -2.3146088e-01 8.78e+00 2.27e+02  -6.0 1.17e+03  -8.5 1.38e-02 6.18e-01h  1
  47 -2.3268970e-01 6.58e+00 1.72e+02  -6.0 3.42e+02  -8.1 1.75e-01 2.66e-01h  1
  48 -2.3591911e-01 4.47e+00 1.39e+02  -6.0 9.49e+02  -8.5 1.42e-01 3.39e-01h  1
  49 -2.3801587e-01 2.39e+00 1.17e+02  -6.0 3.34e+02  -8.1 2.13e-01 4.86e-01h  1
iter    objective    inf_pr   inf_du lg(mu)  ||d||  lg(rg) alpha_du alpha_pr  ls
  50 -2.3868789e-01 1.51e+00 5.56e+01  -6.0 1.24e+02  -7.7 5.16e-01 4.39e-01h  1
  51 -2.3944459e-01 1.28e+00 4.48e+01  -6.0 8.69e+02  -8.2 1.82e-01 1.44e-01h  1
  52 -2.3970118e-01 1.14e+00 2.13e+01  -6.0 8.76e+01  -7.7 1.00e+00 3.51e-01h  1
  53 -2.4199706e-01 1.18e+00 1.37e+01  -6.0 2.26e+02  -8.2 5.07e-01 1.00e+00h  1
  54 -2.4285765e-01 1.53e+00 2.67e+01  -6.0 3.55e+02  -8.7 1.00e+00 2.60e-01h  1
  55 -2.4373135e-01 1.40e+00 2.69e+01  -6.0 8.28e+02  -9.2 4.12e-05 1.80e-01h  1
  56 -2.4593274e-01 1.38e+01 4.59e+01  -6.0 4.55e+03  -9.7 1.73e-01 1.77e-01f  1
  57 -2.4601970e-01 1.24e+01 4.12e+01  -6.0 5.23e+02  -8.3 7.79e-02 1.01e-01h  1
  58 -2.4622560e-01 1.13e+01 3.75e+01  -6.0 3.96e+02  -8.8 4.16e-03 9.27e-02h  1
  59 -2.4623113e-01 1.13e+01 3.75e+01  -6.0 6.83e+04  -9.3 3.30e-04 1.59e-04f  1
iter    objective    inf_pr   inf_du lg(mu)  ||d||  lg(rg) alpha_du alpha_pr  ls
  60 -2.4623126e-01 1.12e+01 3.75e+01  -6.0 3.30e+04  -9.8 3.26e-02 4.16e-04h  1
  61 -2.4654027e-01 1.20e+01 4.06e+01  -6.0 1.79e+04  -9.3 4.83e-04 5.22e-02f  1
  62 -2.4654570e-01 1.03e+01 3.77e+01  -6.0 3.04e+00  -4.4 8.80e-02 1.43e-01h  1
  63 -2.4654286e-01 9.45e+00 3.60e+01  -6.0 2.61e+00  -3.1 4.70e-02 8.07e-02h  1
  64 -2.4654078e-01 8.43e+00 2.72e+01  -6.0 2.40e+00  -3.5 2.22e-01 1.08e-01h  1
  65 -2.4652525e-01 4.95e-03 1.97e+01  -6.0 2.14e+00  -4.0 4.55e-01 1.00e+00h  1
  66 -2.4653379e-01 3.92e-03 6.78e+00  -6.0 2.88e-01  -4.5 8.69e-01 2.18e-01h  1
  67 -2.4653599e-01 2.70e-04 3.92e-01  -6.0 2.46e-01  -4.1 1.00e+00 1.00e+00f  1
  68 -2.4654716e-01 7.07e-04 5.60e-02  -6.0 2.75e-01  -4.5 1.00e+00 1.00e+00h  1
  69 -2.4656075e-01 1.20e-03 2.00e+00  -6.0 6.70e-01  -5.0 1.00e+00 4.77e-01h  1
iter    objective    inf_pr   inf_du lg(mu)  ||d||  lg(rg) alpha_du alpha_pr  ls
  70 -2.4657235e-01 1.02e-02 3.28e+00  -6.0 1.03e+00  -5.5 1.00e+00 6.29e-01f  1
  71 -2.4659869e-01 9.00e-02 2.54e+00  -6.0 2.28e+00  -6.0 1.00e+00 1.00e+00f  1
  72 -2.4663003e-01 6.01e-02 3.28e+00  -6.0 3.24e+00  -6.5 1.00e+00 5.41e-01h  1
  73 -2.4666534e-01 1.73e-02 8.79e-02  -6.0 6.55e+00  -6.9 1.00e+00 1.00e+00f  1
  74 -2.4677980e-01 1.65e-02 2.98e-02  -6.0 1.86e+01  -7.4 1.00e+00 1.00e+00h  1
  75 -2.4705539e-01 6.28e-02 1.43e-01  -6.0 7.59e+01  -7.9 9.61e-01 9.23e-01h  1
  76 -2.4765846e-01 3.44e-01 1.30e+00  -6.0 1.26e+02  -8.4 1.00e+00 1.00e+00h  1
  77 -2.4848419e-01 1.35e+00 4.83e+00  -6.0 3.90e+02  -8.8 5.55e-01 6.00e-01h  1
  78 -2.5060758e-01 1.36e+01 4.92e+01  -6.0 1.32e+03  -9.3 9.15e-02 5.80e-01h  1
  79 -2.5180912e-01 1.74e+01 6.30e+01  -6.0 5.55e+03  -9.8 1.01e-01 8.29e-02h  1
iter    objective    inf_pr   inf_du lg(mu)  ||d||  lg(rg) alpha_du alpha_pr  ls
  80 -2.5195077e-01 1.22e+01 4.41e+01  -6.0 6.19e+02  -9.4 6.08e-01 3.30e-01h  1
  81 -2.5229494e-01 8.24e-01 2.06e+01  -6.0 2.50e+02  -8.9 1.76e-02 1.00e+00h  1
  82 -2.5279225e-01 7.69e+00 1.66e+01  -6.0 1.95e+03  -9.4 2.01e-01 1.98e-01h  1
  83 -2.5317019e-01 6.95e+00 1.70e+01  -6.0 2.44e+03  -9.0 1.13e-01 9.77e-02h  1
  84 -2.5325849e-01 6.09e+00 5.73e+01  -6.0 5.84e+02  -9.5 6.44e-01 1.25e-01h  1
  85 -2.5381312e-01 8.70e+00 1.99e+01  -6.0 1.60e+03  -9.9 2.89e-01 4.20e-01h  1
  86 -2.5407678e-01 7.20e+00 1.17e+01  -6.0 2.68e+03 -10.4 1.38e-01 1.74e-01h  1
  87 -2.5421457e-01 6.73e+00 1.76e+02  -6.0 5.97e+03 -10.9 5.43e-01 6.63e-02h  1
  88 -2.5438955e-01 3.47e+01 1.71e+02  -6.0 3.70e+04 -11.4 1.07e-01 6.00e-02h  1
  89 -2.5439792e-01 3.46e+01 1.68e+02  -6.0 3.86e+05 -11.9 6.18e-03 3.38e-03h  1
iter    objective    inf_pr   inf_du lg(mu)  ||d||  lg(rg) alpha_du alpha_pr  ls
  90 -2.5472266e-01 3.30e+01 8.70e+02  -6.0 2.86e+04 -11.4 2.34e-02 1.25e-01h  1
  91 -2.5488227e-01 3.30e+01 1.09e+03  -6.0 3.32e+04  -8.3 9.55e-06 1.18e-03h  1
  92 -2.5548179e-01 2.95e+01 4.35e+03  -6.0 1.17e+03  -8.8 1.08e-02 1.03e-01h  1
  93 -2.5619607e-01 2.79e+01 1.44e+03  -6.0 1.12e+03  -9.2 1.31e-01 5.72e-01h  1
  94 -2.5620579e-01 2.68e+01 1.55e+03  -6.0 1.43e+01  -5.2 6.99e-03 3.67e-02h  1
  95 -2.5622281e-01 2.42e+01 1.39e+03  -6.0 1.71e+01  -5.7 4.05e-02 1.00e-01h  1
  96 -2.5622548e-01 2.06e+01 1.19e+03  -6.0 1.86e+01  -5.3 1.41e-01 1.47e-01h  1
  97 -2.5625578e-01 1.21e+01 6.61e+02  -6.0 1.15e+01  -5.7 6.05e-01 4.42e-01h  1
  98 -2.5631410e-01 8.14e+00 4.05e+02  -6.0 6.89e+00  -6.2 2.34e-01 3.87e-01h  1
  99 -2.5639184e-01 4.91e+00 2.47e+02  -6.0 8.39e+00  -6.7 5.01e-01 3.90e-01h  1
iter    objective    inf_pr   inf_du lg(mu)  ||d||  lg(rg) alpha_du alpha_pr  ls
 100 -2.5653478e-01 2.32e+00 1.23e+02  -6.0 1.22e+01  -7.2 4.78e-01 5.05e-01h  1
 101 -2.5668487e-01 1.09e+00 4.20e+02  -6.0 2.31e+01  -7.6 1.00e+00 5.21e-01h  1
 102 -2.5696716e-01 3.48e-01 4.89e+02  -6.0 8.21e+01  -8.1 1.00e+00 6.79e-01h  1
 103 -2.5750375e-01 1.14e+00 4.34e+01  -6.0 3.29e+02  -8.6 4.93e-01 5.92e-01h  1
 104 -2.5754967e-01 1.09e+00 2.57e+01  -6.0 1.86e+03  -9.1 4.92e-02 4.34e-02h  1
 105 -2.5767243e-01 1.03e+00 1.67e+03  -6.0 1.12e+03  -9.6 3.13e-01 6.73e-02h  1
 106 -2.5801906e-01 2.20e+00 7.01e+02  -6.0 1.68e+02  -8.2 4.55e-01 6.73e-01h  1
 107 -2.5807656e-01 2.12e+00 1.79e+03  -6.0 1.79e+02  -8.7 2.02e-01 6.49e-02h  1
 108 -2.5854716e-01 1.80e+00 5.46e+05  -6.0 1.21e+02  -8.3 1.07e-02 1.00e+00h  1
 109 -2.5876943e-01 1.41e+00 1.19e+05  -6.0 1.09e+02  -8.8 3.15e-01 7.81e-01h  1
iter    objective    inf_pr   inf_du lg(mu)  ||d||  lg(rg) alpha_du alpha_pr  ls
 110 -2.5904542e-01 5.60e+00 6.57e+04  -6.0 3.76e+02  -9.2 1.71e-01 4.49e-01h  2
 111 -2.5940771e-01 1.63e+01 2.23e+04  -6.0 3.27e+02  -9.7 4.16e-01 6.59e-01H  1
 112 -2.5946780e-01 8.93e+00 6.94e+01  -6.0 6.09e+02 -10.2 7.88e-01 1.00e+00h  1
 113 -2.5947798e-01 2.18e+00 2.86e+01  -6.0 3.43e+02  -9.8 5.95e-01 1.00e+00h  1
 114 -2.5955034e-01 1.07e+00 5.78e+00  -6.0 1.43e+02  -9.3 1.00e+00 8.44e-01h  1
 115 -2.5954612e-01 1.46e-02 2.02e+00  -6.0 1.28e+01  -8.0 8.31e-01 1.00e+00h  1
 116 -2.5954487e-01 3.90e-03 1.22e-02  -6.0 1.48e+01  -8.5 1.00e+00 1.00e+00h  1
 117 -2.5954402e-01 3.48e-02 1.52e-02  -6.0 4.49e+01  -9.0 1.00e+00 1.00e+00h  1
 118 -2.5954649e-01 3.17e-01 1.11e-01  -6.0 1.36e+02  -9.4 1.00e+00 1.00e+00h  1
 119 -2.5954903e-01 1.13e+00 5.19e+00  -6.0 3.45e+02  -9.9 2.66e-01 5.76e-01h  1
iter    objective    inf_pr   inf_du lg(mu)  ||d||  lg(rg) alpha_du alpha_pr  ls
 120 -2.5952966e-01 3.78e+00 3.72e+00  -6.0 6.99e+02 -10.4 1.00e+00 7.83e-01h  1
 121 -2.5951771e-01 1.73e+01 3.60e+01  -6.0 5.85e+03    -  5.10e-01 1.84e-01h  1
 122 -2.5951461e-01 1.98e+01 1.34e+02  -6.0 5.77e+03    -  2.39e-01 2.53e-02H  1
 123 -2.5948743e-01 1.18e+01 1.15e+02  -6.0 1.90e+03    -  2.05e-01 4.04e-01h  1
 124 -2.5946964e-01 2.49e+01 3.94e+01  -6.0 2.56e+03    -  9.94e-01 4.69e-01h  1
 125 -2.5938992e-01 1.48e+02 2.24e+03  -6.0 4.05e+03    -  3.59e-01 8.18e-01h  1
 126 -2.5936332e-01 8.82e+01 2.36e+02  -6.0 2.10e+03    -  2.27e-02 5.00e-01h  2
 127 -2.5940526e-01 8.69e+01 1.52e+03  -6.0 1.12e+04    -  1.50e-01 3.42e-02h  1
 128 -2.5944458e-01 5.16e+00 1.69e+03  -6.0 5.75e+02    -  5.48e-01 1.00e+00h  1
 129 -2.5944407e-01 3.81e+00 1.03e+03  -6.0 4.73e+02    -  4.18e-01 3.10e-01h  1
iter    objective    inf_pr   inf_du lg(mu)  ||d||  lg(rg) alpha_du alpha_pr  ls
 130 -2.5944306e-01 3.92e-01 1.40e-01  -6.0 5.91e+01    -  1.00e+00 1.00e+00h  1
 131 -2.5944293e-01 4.59e-01 5.37e+01  -6.0 6.78e+02 -10.0 1.00e+00 8.48e-02h  2
 132 -2.5944180e-01 1.48e+00 4.55e-01  -6.0 2.65e+02    -  1.00e+00 1.00e+00h  1
 133 -2.5944164e-01 1.18e+00 3.28e+01  -6.0 1.99e+03 -10.4 1.00e+00 3.80e-02h  2
 134 -2.5944030e-01 1.32e+00 1.51e+01  -6.0 8.62e+02    -  1.00e+00 2.80e-01h  2
 135 -2.5943954e-01 1.90e+00 2.02e+01  -6.0 1.30e+03    -  1.00e+00 2.07e-01h  2
 136 -2.5943904e-01 1.92e+00 1.96e+01  -6.0 1.32e+03    -  3.94e-01 1.03e-01h  2
 137 -2.5944007e-01 1.06e-02 3.72e-03  -6.0 3.22e+01    -  1.00e+00 1.00e+00h  1
 138 -2.5944004e-01 7.95e-02 3.40e-03  -6.0 8.29e+01    -  1.00e+00 1.00e+00h  1
 139 -2.5944010e-01 5.83e-03 2.35e-04  -6.0 2.24e+01    -  1.00e+00 1.00e+00h  1
iter    objective    inf_pr   inf_du lg(mu)  ||d||  lg(rg) alpha_du alpha_pr  ls
 140 -2.5944010e-01 1.35e-06 6.07e-08  -6.0 3.36e-01    -  1.00e+00 1.00e+00h  1
 141 -2.5992642e-01 1.42e+00 2.98e+01  -7.5 3.00e+03    -  2.98e-01 1.94e-01h  1
 142 -2.5999944e-01 1.34e+00 8.10e+01  -7.5 1.69e+02  -9.1 3.20e-01 5.57e-02h  1
 143 -2.6043827e-01 5.10e+00 2.67e+01  -7.5 3.31e+03    -  1.68e-03 2.49e-01h  1
 144 -2.6044644e-01 5.13e+00 3.34e+01  -7.5 2.10e+04    -  2.70e-02 2.29e-03h  1
 145 -2.6052716e-01 4.67e+00 8.40e+01  -7.5 2.52e+02  -9.6 5.19e-01 8.94e-02h  1
 146 -2.6083859e-01 5.38e+00 4.28e+01  -7.5 3.12e+03    -  7.33e-03 2.81e-01h  1
 147 -2.6087658e-01 5.09e+00 4.41e+01  -7.5 4.23e+02 -10.1 1.12e-01 5.45e-02h  1
 148 -2.6110205e-01 4.50e+00 1.93e+01  -7.5 7.64e+02 -10.5 1.48e-01 3.31e-01h  1
 149 -2.6116396e-01 4.00e+00 2.61e+01  -7.5 2.06e+03    -  2.98e-01 1.09e-01h  1
iter    objective    inf_pr   inf_du lg(mu)  ||d||  lg(rg) alpha_du alpha_pr  ls
 150 -2.6118022e-01 3.21e+01 2.52e+01  -7.5 7.47e+04    -  2.30e-03 1.68e-02h  1
 151 -2.6128939e-01 2.28e+01 2.45e+01  -7.5 1.21e+02  -9.2 6.67e-02 2.88e-01h  1
 152 -2.6136249e-01 1.86e+01 1.24e+02  -7.5 1.54e+03    -  5.39e-03 2.05e-01h  1
 153 -2.6139319e-01 2.00e+01 1.14e+02  -7.5 4.74e+03    -  1.28e-02 8.25e-02h  1
 154 -2.6139403e-01 2.00e+01 1.14e+02  -7.5 2.73e+04    -  1.94e-02 2.77e-03h  2
 155 -2.6143791e-01 1.69e+01 9.64e+01  -7.5 1.29e+03    -  2.47e-01 1.54e-01h  1
 156 -2.6151757e-01 1.03e+01 5.88e+01  -7.5 1.38e+03    -  5.00e-01 3.89e-01h  1
 157 -2.6152767e-01 1.00e+02 5.51e+01  -7.5 4.72e+04    -  3.18e-03 6.27e-02h  1
 158 -2.6157606e-01 5.99e+01 1.90e+02  -7.5 8.09e+02    -  1.39e-03 4.08e-01h  1
 159 -2.6159564e-01 4.77e+01 1.49e+02  -7.5 9.68e+02    -  5.45e-01 2.11e-01h  1
iter    objective    inf_pr   inf_du lg(mu)  ||d||  lg(rg) alpha_du alpha_pr  ls
 160 -2.6164377e-01 2.05e+01 2.67e+02  -7.5 9.80e+01  -9.7 1.38e-01 5.71e-01h  1
 161 -2.6165277e-01 1.81e+01 4.78e+02  -7.5 7.40e+01 -10.2 1.30e-03 1.18e-01h  1
 162 -2.6169732e-01 7.35e+00 1.54e+03  -7.5 1.51e+02 -10.6 8.70e-02 5.94e-01f  1
 163 -2.6172301e-01 5.19e+00 5.65e+02  -7.5 2.38e+02 -11.1 3.78e-01 2.98e-01h  1
 164 -2.6175587e-01 3.71e+00 3.23e+03  -7.5 4.59e+02 -11.6 7.24e-01 3.48e-01h  1
 165 -2.6176561e-01 4.41e+00 1.10e+07  -7.5 4.11e+03 -12.1 9.04e-05 9.36e-02h  1
 166 -2.6184360e-01 6.23e+01 8.68e+06  -7.5 1.03e+04 -12.6 4.41e-02 2.10e-01h  1
 167 -2.6187827e-01 6.70e+01 4.94e+06  -7.5 3.45e+03    -  1.77e-01 4.31e-01h  1
 168 -2.6187580e-01 6.47e+01 4.76e+06  -7.5 1.82e+03    -  5.21e-01 3.55e-02h  1
 169 -2.6180736e-01 1.32e+00 1.06e+03  -7.5 3.64e+02    -  1.83e-02 1.00e+00h  1
iter    objective    inf_pr   inf_du lg(mu)  ||d||  lg(rg) alpha_du alpha_pr  ls
 170 -2.6177395e-01 8.03e-03 5.19e+00  -7.5 4.75e+00  -8.5 8.40e-01 1.00e+00h  1
 171 -2.6176609e-01 3.88e-03 6.42e-01  -7.5 6.90e+01    -  8.16e-01 1.00e+00H  1
 172 -2.6176610e-01 4.85e-05 6.40e-07  -7.5 1.49e+00  -9.0 1.00e+00 1.00e+00h  1
 173 -2.6176611e-01 6.33e-03 2.30e-01  -7.5 2.97e+03    -  1.29e-01 5.90e-03h  8
 174 -2.6176612e-01 7.69e-03 6.35e-01  -7.5 7.03e+03    -  1.13e-01 1.24e-03h  9
 175 -2.6176613e-01 7.77e-03 9.46e-01  -7.5 6.27e+03    -  1.60e-01 3.49e-04h 11
 176 -2.6176613e-01 7.79e-03 2.53e+00  -7.5 4.17e+03    -  1.00e+00 2.62e-04h 12
 177 -2.6176613e-01 7.79e-03 2.07e+00  -7.5 1.24e+03    -  3.71e-01 4.88e-04h 12
 178 -2.6176772e-01 3.46e+01 4.71e-02  -7.5 1.55e+03    -  1.00e+00 1.00e+00h  1
 179 -2.6176957e-01 3.68e+01 1.62e+00  -7.5 1.51e+03    -  1.21e-01 1.00e+00h  1
iter    objective    inf_pr   inf_du lg(mu)  ||d||  lg(rg) alpha_du alpha_pr  ls
 180 -2.6176972e-01 6.62e-01 1.56e-02  -7.5 1.63e+02    -  1.00e+00 1.00e+00h  1
 181 -2.6177003e-01 1.39e+00 1.71e-02  -7.5 2.87e+02    -  1.00e+00 1.00e+00h  1
 182 -2.6177002e-01 1.52e-03 1.12e-04  -7.5 1.08e+01    -  1.00e+00 1.00e+00h  1
 183 -2.6177002e-01 1.02e-06 2.03e-08  -7.5 2.44e-01    -  1.00e+00 1.00e+00h  1
 184 -2.6177002e-01 4.58e-10 5.14e-13  -7.5 2.91e-06    -  1.00e+00 1.00e+00h  1
 185 -2.6177191e-01 1.02e+00 4.20e+00  -9.0 1.43e+03    -  5.53e-01 1.71e-01h  1
 186 -2.6177325e-01 5.07e+00 4.87e+00  -9.0 2.95e+03    -  4.47e-01 1.68e-01h  1
 187 -2.6177629e-01 5.47e+01 2.02e+00  -9.0 3.20e+03    -  4.61e-01 5.40e-01h  1
 188 -2.6177711e-01 4.26e+01 1.06e+04  -9.0 1.50e+03  -9.5 1.53e-05 9.01e-01h  1
 189 -2.6177786e-01 1.00e+02 3.36e+03  -9.0 4.34e+03    -  9.06e-02 6.84e-01h  1
iter    objective    inf_pr   inf_du lg(mu)  ||d||  lg(rg) alpha_du alpha_pr  ls
 190 -2.6177839e-01 3.86e+01 2.41e+01  -9.0 1.65e+03    -  1.28e-03 1.00e+00h  1
 191 -2.6178003e-01 4.95e+01 3.69e+00  -9.0 1.96e+03    -  3.77e-01 8.46e-01h  1
 192 -2.6177996e-01 4.81e+01 3.59e+00  -9.0 1.20e+04    -  1.80e-02 2.92e-02H  1
 193 -2.6177998e-01 4.77e+01 3.55e+00  -9.0 5.84e+03    -  1.07e-03 1.01e-02h  1
 194 -2.6178018e-01 3.56e+01 2.35e+03  -9.0 1.37e+03  -9.9 1.03e-04 6.47e-01h  1
 195 -2.6178021e-01 3.48e+01 2.30e+03  -9.0 8.30e+02 -10.4 2.82e-05 2.36e-02h  1
 196 -2.6178092e-01 8.31e-01 5.33e-01  -9.0 2.21e+02 -10.0 6.40e-01 1.00e+00f  1
 197 -2.6178076e-01 5.37e-03 2.07e-02  -9.0 9.45e+00 -10.5 1.00e+00 1.00e+00h  1
 198 -2.6178146e-01 5.72e+01 2.79e-02  -9.0 1.39e+04    -  1.46e-02 1.44e-01h  1
 199 -2.6178142e-01 1.30e+01 2.10e-02  -9.0 2.84e+03    -  3.32e-02 6.56e-01H  1
iter    objective    inf_pr   inf_du lg(mu)  ||d||  lg(rg) alpha_du alpha_pr  ls
 200 -2.6178143e-01 2.20e-02 1.19e-02  -9.0 2.52e+01 -11.0 1.48e-01 1.00e+00h  1
 201 -2.6178146e-01 1.20e-01 2.38e-05  -9.0 8.91e+01 -11.4 1.00e+00 1.00e+00h  1
 202 -2.6178158e-01 1.07e+00 2.20e-04  -9.0 2.66e+02 -11.9 1.00e+00 1.00e+00h  1
 203 -2.6178195e-01 1.06e+01 2.27e-03  -9.0 8.32e+02 -12.4 1.00e+00 1.00e+00h  1
 204 -2.6178313e-01 6.17e+01 1.42e-02  -9.0 2.90e+03 -12.9 6.90e-01 7.36e-01h  1
 205 -2.6178356e-01 2.50e+01 3.48e-03  -9.0 1.32e+03 -12.4 1.00e+00 1.00e+00h  1
 206 -2.6178465e-01 7.17e+01 6.40e-02  -9.0 2.36e+04 -12.9 5.96e-02 7.93e-02h  1
 207 -2.6178505e-01 6.16e+01 8.11e-01  -9.0 6.28e+03    -  7.96e-02 1.40e-01h  2
 208 -2.6178519e-01 6.18e+01 6.35e-01  -9.0 3.74e+04    -  1.04e-02 4.48e-03h  2
 209 -2.6178560e-01 5.82e+01 1.60e+00  -9.0 4.40e+03    -  2.60e-01 8.42e-02h  1
iter    objective    inf_pr   inf_du lg(mu)  ||d||  lg(rg) alpha_du alpha_pr  ls
 210 -2.6178757e-01 5.10e+01 3.45e-01  -9.0 2.11e+03    -  5.13e-01 7.52e-01h  1
 211 -2.6178759e-01 5.06e+01 5.19e+00  -9.0 1.83e+03    -  2.95e-02 6.54e-03h  1
 212 -2.6178857e-01 3.91e+01 1.36e+04  -9.0 1.83e+03    -  2.67e-04 4.23e-01h  1
 213 -2.6178872e-01 3.67e+01 1.27e+04  -9.0 1.77e+03    -  9.61e-02 6.74e-02h  1
 214 -2.6179010e-01 3.61e+01 4.43e+03  -9.0 1.76e+03    -  1.12e-02 6.51e-01h  1
 215 -2.6179054e-01 3.03e+01 3.29e+03  -9.0 1.69e+03    -  2.92e-03 2.58e-01h  1
 216 -2.6179179e-01 4.45e+01 3.86e+02  -9.0 1.66e+03    -  1.91e-02 8.83e-01h  1
 217 -2.6179219e-01 2.57e+01 1.54e+02  -9.0 1.69e+03    -  1.01e-02 6.00e-01h  1
 218 -2.6179232e-01 2.57e+01 1.36e+02  -9.0 3.05e+03    -  3.67e-01 1.16e-01h  2
 219 -2.6179303e-01 3.11e+01 8.32e+01  -9.0 2.80e+03    -  4.43e-01 3.89e-01H  1
iter    objective    inf_pr   inf_du lg(mu)  ||d||  lg(rg) alpha_du alpha_pr  ls
 220 -2.6179319e-01 2.65e+00 1.56e+01  -9.0 3.16e+02    -  5.37e-02 1.00e+00h  1
 221 -2.6179376e-01 2.59e+01 4.96e+00  -9.0 1.57e+03 -12.5 1.00e+00 6.74e-01h  1
 222 -2.6179351e-01 7.78e+00 9.02e-01  -9.0 5.93e+02    -  4.68e-01 1.00e+00h  1
 223 -2.6179375e-01 1.07e+01 3.43e-01  -9.0 9.17e+02    -  1.00e+00 6.30e-01h  1
 224 -2.6179372e-01 4.19e-04 1.63e-04  -9.0 1.49e+01    -  1.00e+00 1.00e+00h  1
 225 -2.6179372e-01 2.16e-05 1.60e-06  -9.0 9.46e-01    -  1.00e+00 1.00e+00h  1
 226 -2.6179372e-01 5.86e-10 2.17e-12  -9.0 4.89e-03    -  1.00e+00 1.00e+00h  1

Number of Iterations....: 226

                                   (scaled)                 (unscaled)
Objective...............:  -2.6179372340857054e-01   -2.6179372340857054e-01
Dual infeasibility......:   2.1746354434534627e-12    2.1746354434534627e-12
Constraint violation....:   3.3269922077421793e-10    5.8571458794176579e-10
Complementarity.........:   9.0909092941839806e-10    9.0909092941839806e-10
Overall NLP error.......:   9.0909092941839806e-10    9.0909092941839806e-10


Number of objective function evaluations             = 416
Number of objective gradient evaluations             = 227
Number of equality constraint evaluations            = 418
Number of inequality constraint evaluations          = 417
Number of equality constraint Jacobian evaluations   = 227
Number of inequality constraint Jacobian evaluations = 227
Number of Lagrangian Hessian evaluations             = 226
Total CPU secs in IPOPT (w/o function evaluations)   =    316.945
Total CPU secs in NLP function evaluations           =      5.669

EXIT: Optimal Solution Found.
